files/upTests/tupley32-7-1-3c/0001.eprime.solution
language ESSENCE' 1.0
$ minion Nodes: 1
$ minion TotalTime: 0.000487
$ Savile Row TotalTime: 0.113
letting pain_tuple1 be [2]
letting pain_tuple2_tuple1_tuple2 be [11]
letting pain_tuple2_tuple1_tuple1 be [10]
letting pain_tuple2_tuple2 be [12]
